SECTION Graph
Nodes 18
Edges 27
E 1 2 15
E 1 3 10
E 1 4 10
E 2 5 10
E 2 6 5
E 3 6 10
E 3 7 5
E 4 7 10
E 4 8 5
E 5 9 10
E 6 9 5
E 6 10 5
E 7 10 10
E 7 11 5
E 8 11 10
E 9 12 15
E 10 12 5
E 10 13 5
E 11 13 10
E 12 14 10
E 12 15 5
E 13 15 10
E 14 16 15
E 15 16 10
E 16 17 20
E 17 18 30
END
SECTION SOURCE SINK
SOURCE 1
SINK 18
END
